1
1000
120
499 1
497 1
491 1
488 1
484 1
484 1
483 1
481 1
480 1
473 1
469 1
465 1
464 1
462 1
460 1
452 1
447 1
446 1
436 1
434 1
432 1
430 1
426 1
424 1
419 1
414 1
410 1
409 1
403 1
401 1
396 1
396 1
391 1
384 1
382 1
373 1
370 1
368 1
360 1
359 1
357 1
350 1
350 1
350 1
337 1
335 1
334 1
333 1
328 1
325 1
324 1
322 1
321 1
317 1
315 1
314 1
312 1
308 1
306 1
303 1
301 1
298 1
298 1
298 1
296 1
289 1
289 1
289 1
288 1
286 1
285 1
283 1
280 1
279 1
279 1
278 1
276 1
275 1
274 1
273 1
272 1
272 1
270 1
269 1
269 1
268 1
268 1
267 1
267 1
266 1
266 1
266 1
265 1
265 1
265 1
263 1
263 1
262 1
261 1
261 1
260 1
259 1
258 1
258 1
257 1
256 1
256 1
255 1
254 1
254 1
253 1
252 1
252 1
251 1
251 1
251 1
251 1
250 1
250 1
250 1
